TITL  _1274b
CELL  0.71073 11.2616 9.2356 23.8390 90.000 92.586 90.000
ZERR  2 0.0011 0.0009 0.0025 0.000 0.003 0.000
LATT -1
SYMM    -X, .50+Y,    -Z
SFAC C H O
UNIT 94 132 22
L.S. 6
WGHT    0.097500
FVAR      12.31148   0.00000
C1    1    1.124971    0.552024    0.386915    11.00000    0.06459    0.04440 =
         0.05361    0.00139    0.01630    0.00314
C2    1    1.103903    0.496455    0.328100    11.00000    0.05513    0.05938 =
         0.04824   -0.00271    0.00467    0.00699
AFIX  23
H2A   2    1.163048    0.424365    0.319534    11.00000   -1.33000
H2B   2    1.108096    0.575007    0.301253    11.00000   -1.33000
AFIX   0
C3    1    0.980512    0.429856    0.325722    11.00000    0.07647    0.07366 =
         0.05923    0.00256   -0.00143   -0.01113
AFIX  23
H3A   2    0.923416    0.502446    0.336285    11.00000   -1.33000
H3B   2    0.978427    0.351597    0.352797    11.00000   -1.33000
AFIX   0
C4    1    0.943999    0.371104    0.267389    11.00000    0.06586    0.06285 =
         0.06122   -0.01041    0.00645    0.00699
AFIX  23
H4A   2    0.997037    0.293047    0.257811    11.00000   -1.33000
H4B   2    0.950854    0.447300    0.239718    11.00000   -1.33000
AFIX   0
C5    1    0.815320    0.314959    0.266029    11.00000    0.07618    0.07105 =
         0.04923    0.00416    0.00121   -0.01147
AFIX  23
H5A   2    0.806594    0.247442    0.296738    11.00000   -1.33000
H5B   2    0.761866    0.395572    0.271518    11.00000   -1.33000
AFIX   0
C6    1    0.780356    0.239817    0.210792    11.00000    0.05599    0.06073 =
         0.05152    0.00890    0.01104    0.00094
AFIX  13
H6    2    0.834584    0.158349    0.205711    11.00000   -1.33000
AFIX   0
C7    1    0.789187    0.341163    0.161742    11.00000    0.05215    0.05766 =
         0.04919    0.00616    0.00902    0.00295
AFIX  43
H7    2    0.736344    0.418595    0.160304    11.00000   -1.33000
AFIX   0
C8    1    0.863677    0.332793    0.120306    11.00000    0.04903    0.05984 =
         0.05113    0.00321    0.00514   -0.00189
C9    1    0.863350    0.445397    0.074333    11.00000    0.04641    0.06297 =
         0.04203   -0.00252    0.00957    0.00153
AFIX  13
H9    2    0.939633    0.496410    0.077800    11.00000   -1.33000
AFIX   0
C10   1    0.851792    0.383807    0.015257    11.00000    0.05193    0.07153 =
         0.04763   -0.00574    0.01032   -0.00417
AFIX  13
H10   2    0.921920    0.325537    0.007527    11.00000   -1.33000
AFIX   0
C11   1    0.838346    0.504303   -0.026177    11.00000    0.06444    0.08239 =
         0.04263   -0.00635    0.00422   -0.00456
AFIX  43
H11   2    0.848905    0.485688   -0.063966    11.00000   -1.33000
AFIX   0
C12   1    0.811741    0.636924   -0.010276    11.00000    0.05940    0.08613 =
         0.04592    0.01265   -0.00212   -0.00777
AFIX  43
H12   2    0.810869    0.709857   -0.037190    11.00000   -1.33000
AFIX   0
C13   1    0.782821    0.677200    0.048567    11.00000    0.06077    0.05855 =
         0.05513    0.00488    0.00117   -0.00102
AFIX  13
H13   2    0.704421    0.723436    0.046437    11.00000   -1.33000
AFIX   0
C14   1    0.870196    0.787057    0.075753    11.00000    0.06306    0.06372 =
         0.04925    0.01007    0.00785   -0.00713
AFIX  23
H14A  2    0.948084    0.742900    0.080864    11.00000   -1.33000
H14B  2    0.877187    0.869926    0.051122    11.00000   -1.33000
AFIX   0
C15   1    0.828006    0.837055    0.132216    11.00000    0.07611    0.06011 =
         0.05198    0.00106    0.00735    0.00673
AFIX  43
H15   2    0.751901    0.876119    0.132313    10.50000   -1.33000
AFIX   0
C16   1    0.889860    0.830896    0.183068    10.50000    0.07350    0.04130 =
         0.05179    0.00125    0.01326    0.00059
AFIX  43
H16   2    0.966938    0.794716    0.183182    10.50000   -1.33000
AFIX   0
C17   1    0.845340    0.876388    0.237576    10.50000    0.08254    0.04506 =
         0.04330    0.00838   -0.00102    0.00606
AFIX  23
H17A  2    0.761883    0.901456    0.232615    10.50000   -1.33000
H17B  2    0.887979    0.962389    0.250345    10.50000   -1.33000
AFIX   0
C18   1    0.859901    0.757494    0.282988    10.50000    0.05353    0.03204 =
         0.05085    0.00984    0.00266   -0.00720
AFIX  23
H18A  2    0.822032    0.668755    0.269756    10.50000   -1.33000
H18B  2    0.943585    0.737859    0.290949    10.50000   -1.33000
AFIX   0
C19   1    0.802044    0.810328    0.336495    11.00000    0.05294    0.09052 =
         0.04471    0.00334    0.00576    0.01011
AFIX  43
H19   2    0.719417    0.813212    0.334324    10.50000   -1.33000
AFIX   0
C20   1    0.851226    0.851850    0.384612    11.00000    0.04864    0.06706 =
         0.05121    0.00655    0.00196   -0.00874
AFIX  43
H20   2    0.930468    0.880400    0.385253    11.00000   -1.33000
AFIX   0
C21   1    0.789352    0.856535    0.438194    11.00000    0.05205    0.02972 =
         0.04111   -0.00389   -0.00060   -0.00674
AFIX  13
H21   2    0.703641    0.850362    0.429432    11.00000   -1.33000
AFIX   0
C22   1    0.823939    0.733285    0.478452    11.00000    0.04207    0.03220 =
         0.04052   -0.00474    0.00620   -0.00110
AFIX  13
H22   2    0.782485    0.748700    0.513228    11.00000   -1.33000
AFIX   0
C23   1    0.789924    0.584659    0.456191    11.00000    0.03985    0.03246 =
         0.04347   -0.00380    0.00342    0.00213
AFIX  13
H23   2    0.838040    0.561429    0.424150    11.00000   -1.33000
AFIX   0
C24   1    0.807845    0.467758    0.501117    11.00000    0.05315    0.03309 =
         0.04362   -0.00005    0.00067    0.00533
AFIX  23
H24A  2    0.891655    0.460804    0.512070    11.00000   -1.33000
H24B  2    0.765332    0.494679    0.534039    11.00000   -1.33000
AFIX   0
C25   1    0.763397    0.320886    0.479744    11.00000    0.06199    0.03120 =
         0.04748    0.00091    0.00214   -0.00035
AFIX  13
H25   2    0.763839    0.252874    0.511307    11.00000   -1.33000
AFIX   0
C26   1    0.637165    0.331030    0.453735    11.00000    0.04981    0.03294 =
         0.04962   -0.00134    0.00610   -0.00839
AFIX  13
H26   2    0.620449    0.240851    0.433201    11.00000   -1.33000
AFIX   0
C27   1    0.630457    0.456066    0.411045    11.00000    0.04647    0.02574 =
         0.04710   -0.00769   -0.00146   -0.00172
AFIX  13
H27   2    0.685883    0.435230    0.381557    11.00000   -1.33000
AFIX   0
C28   1    0.507374    0.479685    0.383314    11.00000    0.05225    0.03934 =
         0.05903   -0.00686   -0.00441   -0.00150
AFIX  23
H28A  2    0.449499    0.487316    0.412096    11.00000   -1.33000
H28B  2    0.506692    0.570033    0.362554    11.00000   -1.33000
AFIX   0
C29   1    0.472880    0.358468    0.344276    11.00000    0.04560    0.03721 =
         0.05248   -0.00513   -0.00234    0.00219
AFIX  43
H29   2    0.519948    0.345606    0.313598    11.00000   -1.33000
AFIX   0
C30   1    0.383402    0.267931    0.348448    11.00000    0.04302    0.04169 =
         0.05025   -0.00784    0.00246    0.00398
AFIX  43
H30   2    0.333626    0.280332    0.378161    11.00000   -1.33000
AFIX   0
C31   1    0.356857    0.146452    0.308390    11.00000    0.03579    0.04085 =
         0.04747   -0.00516   -0.00157   -0.00039
AFIX  13
H31   2    0.411713    0.154215    0.277768    11.00000   -1.33000
AFIX   0
C32   1    0.370100   -0.003654    0.333418    11.00000    0.04938    0.04193 =
         0.04792    0.00174    0.00683   -0.00180
AFIX  13
H32   2    0.329305   -0.006060    0.368859    11.00000   -1.33000
AFIX   0
C33   1    0.309725   -0.111310    0.292857    11.00000    0.06298    0.04060 =
         0.05567   -0.00065    0.00413   -0.00973
AFIX  13
H33   2    0.323102   -0.211054    0.305668    11.00000   -1.33000
AFIX   0
C34   1    0.179236   -0.078707    0.286222    11.00000    0.06126    0.04908 =
         0.06283   -0.00207    0.00074   -0.01664
AFIX  23
H34A  2    0.135583   -0.155345    0.266590    11.00000   -1.33000
H34B  2    0.144343   -0.059850    0.321962    11.00000   -1.33000
AFIX   0
C35   1    0.187142    0.054755    0.251447    11.00000    0.04566    0.04853 =
         0.05594   -0.00639   -0.00943   -0.00905
AFIX  13
H35   2    0.108930    0.080741    0.234738    11.00000   -1.33000
AFIX   0
C36   1    0.269540    0.006286    0.206598    11.00000    0.06007    0.04747 =
         0.05004   -0.00257   -0.00863   -0.00643
AFIX  13
H36   2    0.223237   -0.051004    0.178780    11.00000   -1.33000
AFIX   0
C37   1    0.331837    0.122748    0.176547    11.00000    0.06788    0.05123 =
         0.04817   -0.00208    0.00067   -0.00301
AFIX  43
H37   2    0.334447    0.213716    0.193286    11.00000   -1.33000
AFIX   0
C38   1    0.384714    0.108858    0.127469    11.00000    0.05611    0.05331 =
         0.05463    0.00042   -0.00440   -0.00177
AFIX  43
H38   2    0.380648    0.020597    0.108700    11.00000   -1.33000
AFIX   0
C39   1    0.448097    0.228546    0.103045    11.00000    0.05809    0.05265 =
         0.05503    0.00387   -0.00064   -0.00322
AFIX  43
H39   2    0.434788    0.319462    0.118313    11.00000   -1.33000
AFIX   0
C40   1    0.524037    0.223797    0.060839    11.00000    0.05394    0.06209 =
         0.05193    0.00188   -0.00214   -0.00137
AFIX  43
H40   2    0.561465    0.309701    0.051521    11.00000   -1.33000
AFIX   0
C41   1    0.551717    0.096809    0.029154    11.00000    0.07914    0.06336 =
         0.05682   -0.00721   -0.00713   -0.00465
AFIX  43
H41   2    0.495123    0.023480    0.029193    11.00000   -1.33000
AFIX   0
C42   1    0.649127    0.068539   -0.000952    11.00000    0.06962    0.07286 =
         0.05872   -0.01773    0.00679   -0.00044
AFIX  43
H42   2    0.647178   -0.018251   -0.020754    11.00000   -1.33000
AFIX   0
C43   1    0.754665    0.154600   -0.006312    11.00000    0.05756    0.07610 =
         0.05088   -0.00453    0.00197   -0.00384
C44   1    0.653817    0.180895    0.213056    11.00000    0.06230    0.06515 =
         0.05395    0.00434    0.00609   -0.00687
AFIX 137
H44A  2    0.646763    0.125000    0.246695    11.00000   -1.50000
H44B  2    0.636609    0.120576    0.180914    11.00000   -1.50000
H44C  2    0.598611    0.260105    0.212981    11.00000   -1.50000
AFIX   0
C45   1    0.956940    0.218239    0.115171    11.00000    0.06561    0.07761 =
         0.05918    0.00254    0.01268    0.01216
AFIX 137
H45A  2    0.957851    0.156773    0.147663    11.00000   -1.50000
H45B  2    1.033322    0.263200    0.112448    11.00000   -1.50000
H45C  2    0.939348    0.161412    0.082114    11.00000   -1.50000
AFIX   0
C46   1    0.545669    0.345023    0.499285    11.00000    0.07040    0.06181 =
         0.06030    0.00624    0.01337   -0.01084
AFIX 137
H46A  2    0.562537    0.274660    0.528197    11.00000   -1.50000
H46B  2    0.467344    0.328678    0.482943    11.00000   -1.50000
H46C  2    0.549932    0.440478    0.515189    11.00000   -1.50000
AFIX   0
C47   1    0.501107   -0.041582    0.345434    11.00000    0.05914    0.05028 =
         0.06577    0.00745   -0.00119    0.00200
AFIX 137
H47A  2    0.541385   -0.044057    0.310803    11.00000   -1.50000
H47B  2    0.506892   -0.134721    0.363226    11.00000   -1.50000
H47C  2    0.537203    0.030247    0.369807    11.00000   -1.50000
AFIX   0
O9    3    0.772633    0.549415    0.082360    11.00000    0.05033    0.06075 =
         0.05179    0.00359    0.00808    0.00202
O10   3    0.744591    0.293473    0.011425    11.00000    0.05265    0.06680 =
         0.06495   -0.01138    0.00558   -0.00839
O11   3    1.102453    0.672402    0.402104    11.00000    0.08695    0.05135 =
         0.05950   -0.00266    0.00093    0.01532
O12   3    1.168566    0.453578    0.421672    11.00000    0.18003    0.05385 =
         0.04523   -0.00043    0.01078    0.03766
AFIX 147
H12A  2    1.140289    0.464295    0.452500    11.00000   -1.50000
AFIX   0
O21   3    0.812042    0.986413    0.469932    11.00000    0.12570    0.02639 =
         0.05499   -0.00219   -0.00738   -0.00974
AFIX 147
H21A  2    0.835456    1.049953    0.449098    11.00000   -1.50000
AFIX   0
O22   3    0.949582    0.733975    0.492363    11.00000    0.04785    0.04360 =
         0.05419   -0.00545   -0.00155   -0.00420
AFIX 147
H22A  2    0.985653    0.707007    0.465128    11.00000   -1.50000
AFIX   0
O23   3    0.666104    0.589570    0.437854    11.00000    0.04228    0.02910 =
         0.04891   -0.00553   -0.00185    0.00045
O25   3    0.839010    0.265655    0.437920    11.00000    0.04812    0.03839 =
         0.05721   -0.00305    0.00130    0.00623
AFIX 147
H25A  2    0.908682    0.273493    0.449042    11.00000   -1.50000
AFIX   0
O31   3    0.236458    0.173292    0.284881    11.00000    0.04401    0.04274 =
         0.05766   -0.00469   -0.00563    0.00087
O33   3    0.353014   -0.090438    0.236689    11.00000    0.06444    0.04476 =
         0.04911   -0.00284    0.00381   -0.00034
O43   3    0.845791    0.104371   -0.023036    11.00000    0.06982    0.08202 =
         0.09626   -0.02300    0.01440    0.00010
HKLF 4 
END